33D32945 STP File, STP Format Version 1.0

SECTION Comment
Name "i640-334-PCST"
Creator "Indaco Biazzo" 
Remark "derived from Incidence graph by Cees Duin"
END

SECTION Graph
Nodes 640
Edges 1280
E 1 70 307.000000
E 1 262 195.000000
E 1 279 193.000000
E 1 335 195.000000
E 1 596 202.000000
E 1 602 192.000000
E 2 64 291.000000
E 2 194 202.000000
E 2 398 205.000000
E 3 184 203.000000
E 4 29 295.000000
E 4 118 308.000000
E 4 144 300.000000
E 4 169 199.000000
E 4 171 199.000000
E 4 401 189.000000
E 4 410 207.000000
E 5 424 193.000000
E 5 544 203.000000
E 6 358 207.000000
E 6 388 198.000000
E 6 612 195.000000
E 7 249 197.000000
E 7 288 189.000000
E 7 503 199.000000
E 8 46 304.000000
E 8 203 210.000000
E 8 333 202.000000
E 8 432 197.000000
E 8 528 204.000000
E 9 21 291.000000
E 9 28 294.000000
E 9 105 301.000000
E 9 158 300.000000
E 9 205 200.000000
E 9 267 197.000000
E 9 278 197.000000
E 9 374 194.000000
E 9 561 203.000000
E 10 64 304.000000
E 10 99 309.000000
E 10 129 302.000000
E 10 243 207.000000
E 10 499 193.000000
E 10 619 188.000000
E 10 624 201.000000
E 11 43 300.000000
E 11 213 208.000000
E 11 468 203.000000
E 12 23 294.000000
E 12 174 204.000000
E 12 192 200.000000
E 12 194 199.000000
E 12 313 200.000000
E 12 440 194.000000
E 12 522 202.000000
E 13 237 212.000000
E 13 522 204.000000
E 13 605 191.000000
E 14 18 303.000000
E 14 441 197.000000
E 14 567 200.000000
E 14 587 198.000000
E 14 628 202.000000
E 15 18 291.000000
E 15 116 299.000000
E 15 263 203.000000
E 15 387 204.000000
E 16 106 296.000000
E 16 190 194.000000
E 16 397 203.000000
E 16 483 191.000000
E 17 211 203.000000
E 18 104 297.000000
E 18 202 199.000000
E 18 342 200.000000
E 18 452 202.000000
E 18 582 195.000000
E 19 171 203.000000
E 19 221 191.000000
E 19 339 201.000000
E 19 431 200.000000
E 19 481 196.000000
E 19 506 194.000000
E 19 626 200.000000
E 20 76 296.000000
E 20 316 193.000000
E 20 336 202.000000
E 20 430 203.000000
E 20 613 196.000000
E 21 53 299.000000
E 21 80 297.000000
E 21 189 192.000000
E 21 514 203.000000
E 21 596 204.000000
E 22 498 193.000000
E 23 87 297.000000
E 23 455 203.000000
E 23 487 199.000000
E 24 86 299.000000
E 24 208 195.000000
E 24 369 198.000000
E 24 464 199.000000
E 25 95 307.000000
E 25 101 303.000000
E 25 174 204.000000
E 26 193 207.000000
E 26 488 203.000000
E 26 535 200.000000
E 26 589 199.000000
E 26 625 199.000000
E 26 627 200.000000
E 27 163 195.000000
E 27 223 194.000000
E 27 256 203.000000
E 27 463 197.000000
E 28 149 307.000000
E 28 326 196.000000
E 28 337 201.000000
E 28 564 190.000000
E 29 188 199.000000
E 29 293 204.000000
E 29 365 182.000000
E 29 366 199.000000
E 30 239 210.000000
E 30 274 203.000000
E 31 88 299.000000
E 31 178 195.000000
E 31 489 202.000000
E 31 516 190.000000
E 31 534 200.000000
E 32 84 291.000000
E 32 240 206.000000
E 32 385 205.000000
E 32 445 196.000000
E 32 579 199.000000
E 32 601 197.000000
E 33 128 301.000000
E 33 227 193.000000
E 33 251 202.000000
E 33 267 198.000000
E 33 557 196.000000
E 34 386 208.000000
E 34 591 198.000000
E 35 43 297.000000
E 35 375 192.000000
E 35 530 200.000000
E 36 349 204.000000
E 36 358 195.000000
E 36 397 196.000000
E 36 613 198.000000
E 37 75 298.000000
E 37 151 304.000000
E 38 93 297.000000
E 38 121 301.000000
E 38 232 199.000000
E 38 319 201.000000
E 38 444 197.000000
E 38 502 206.000000
E 39 177 201.000000
E 39 189 196.000000
E 40 218 213.000000
E 41 409 194.000000
E 41 609 200.000000
E 42 455 194.000000
E 42 553 193.000000
E 42 623 194.000000
E 43 271 204.000000
E 43 274 204.000000
E 43 301 194.000000
E 43 313 205.000000
E 43 374 193.000000
E 44 248 199.000000
E 45 53 300.000000
E 45 190 205.000000
E 45 348 203.000000
E 46 137 297.000000
E 46 186 196.000000
E 46 305 198.000000
E 47 87 292.000000
E 47 137 297.000000
E 47 373 193.000000
E 47 392 202.000000
E 47 518 196.000000
E 47 620 198.000000
E 48 219 200.000000
E 48 310 194.000000
E 48 533 203.000000
E 48 561 200.000000
E 49 273 200.000000
E 49 400 200.000000
E 49 442 201.000000
E 49 606 199.000000
E 50 276 204.000000
E 50 323 206.000000
E 50 409 205.000000
E 50 476 199.000000
E 50 486 191.000000
E 50 514 197.000000
E 51 120 297.000000
E 51 324 202.000000
E 51 328 197.000000
E 51 468 207.000000
E 51 509 204.000000
E 51 575 206.000000
E 51 632 198.000000
E 52 53 300.000000
E 52 80 295.000000
E 52 326 198.000000
E 52 397 198.000000
E 52 612 187.000000
E 53 67 301.000000
E 53 364 202.000000
E 53 420 206.000000
E 54 135 301.000000
E 54 305 206.000000
E 54 349 202.000000
E 55 278 203.000000
E 55 303 194.000000
E 55 309 191.000000
E 55 443 193.000000
E 56 76 302.000000
E 56 114 298.000000
E 56 368 201.000000
E 57 156 297.000000
E 57 493 197.000000
E 58 152 296.000000
E 58 547 199.000000
E 58 587 199.000000
E 59 235 203.000000
E 59 241 197.000000
E 59 268 201.000000
E 59 392 209.000000
E 60 206 202.000000
E 60 285 204.000000
E 60 387 195.000000
E 60 529 199.000000
E 61 335 201.000000
E 61 577 202.000000
E 61 597 204.000000
E 62 67 295.000000
E 62 455 192.000000
E 62 456 204.000000
E 62 468 198.000000
E 63 161 194.000000
E 63 517 199.000000
E 63 622 204.000000
E 64 113 298.000000
E 64 369 199.000000
E 64 537 205.000000
E 65 135 304.000000
E 65 267 197.000000
E 65 422 193.000000
E 65 503 197.000000
E 65 516 190.000000
E 65 623 201.000000
E 65 634 204.000000
E 66 405 202.000000
E 66 479 199.000000
E 66 483 193.000000
E 66 513 198.000000
E 67 223 194.000000
E 67 389 213.000000
E 67 395 198.000000
E 68 114 311.000000
E 68 292 194.000000
E 68 308 195.000000
E 68 318 199.000000
E 68 367 202.000000
E 68 384 198.000000
E 68 445 208.000000
E 68 483 197.000000
E 69 127 305.000000
E 69 203 194.000000
E 69 251 199.000000
E 69 424 203.000000
E 69 595 197.000000
E 70 93 301.000000
E 70 147 303.000000
E 70 318 206.000000
E 70 457 204.000000
E 70 467 202.000000
E 70 474 194.000000
E 70 549 204.000000
E 70 550 200.000000
E 71 148 303.000000
E 71 244 203.000000
E 71 324 203.000000
E 71 589 199.000000
E 72 288 203.000000
E 72 401 198.000000
E 72 591 210.000000
E 73 121 297.000000
E 74 272 204.000000
E 74 300 201.000000
E 74 381 203.000000
E 75 201 204.000000
E 75 297 203.000000
E 75 314 203.000000
E 75 629 207.000000
E 76 161 207.000000
E 77 173 208.000000
E 77 181 201.000000
E 77 217 202.000000
E 77 263 202.000000
E 77 377 197.000000
E 77 575 198.000000
E 78 327 199.000000
E 78 468 205.000000
E 78 542 202.000000
E 78 597 206.000000
E 79 411 195.000000
E 79 476 204.000000
E 79 541 201.000000
E 80 124 306.000000
E 80 312 203.000000
E 80 361 203.000000
E 80 368 208.000000
E 80 401 205.000000
E 80 533 201.000000
E 80 582 208.000000
E 80 589 207.000000
E 81 281 192.000000
E 81 622 191.000000
E 82 475 205.000000
E 82 560 202.000000
E 83 100 294.000000
E 83 196 197.000000
E 83 234 199.000000
E 83 238 205.000000
E 83 511 202.000000
E 83 601 203.000000
E 84 343 201.000000
E 84 380 196.000000
E 84 439 207.000000
E 84 457 193.000000
E 84 497 197.000000
E 84 623 203.000000
E 85 383 205.000000
E 85 476 199.000000
E 86 427 208.000000
E 86 591 206.000000
E 87 296 197.000000
E 87 413 194.000000
E 88 392 213.000000
E 88 435 198.000000
E 88 480 202.000000
E 88 633 195.000000
E 89 204 203.000000
E 89 486 198.000000
E 90 287 199.000000
E 90 371 204.000000
E 90 378 204.000000
E 91 160 307.000000
E 91 234 200.000000
E 91 239 192.000000
E 91 478 200.000000
E 91 532 198.000000
E 91 541 190.000000
E 92 100 301.000000
E 92 251 208.000000
E 93 279 207.000000
E 93 478 198.000000
E 94 252 194.000000
E 94 596 204.000000
E 95 111 295.000000
E 95 191 193.000000
E 96 341 201.000000
E 96 386 188.000000
E 96 474 201.000000
E 97 258 201.000000
E 97 274 198.000000
E 97 303 207.000000
E 97 350 196.000000
E 97 386 199.000000
E 98 490 204.000000
E 98 609 188.000000
E 99 248 196.000000
E 99 511 191.000000
E 99 587 203.000000
E 100 337 199.000000
E 100 423 210.000000
E 100 619 199.000000
E 101 173 195.000000
E 101 325 189.000000
E 101 511 200.000000
E 101 512 199.000000
E 102 400 212.000000
E 102 571 196.000000
E 102 597 194.000000
E 102 623 204.000000
E 103 194 197.000000
E 103 500 195.000000
E 104 511 209.000000
E 104 640 205.000000
E 105 580 200.000000
E 105 621 198.000000
E 106 203 208.000000
E 106 358 189.000000
E 106 394 191.000000
E 106 529 205.000000
E 107 140 299.000000
E 108 337 202.000000
E 108 347 200.000000
E 108 563 207.000000
E 108 565 201.000000
E 108 625 200.000000
E 109 262 185.000000
E 109 291 192.000000
E 109 369 204.000000
E 109 429 208.000000
E 109 433 198.000000
E 109 548 201.000000
E 110 228 200.000000
E 110 358 208.000000
E 110 569 200.000000
E 111 171 203.000000
E 111 340 204.000000
E 111 346 201.000000
E 111 481 195.000000
E 112 138 309.000000
E 112 555 201.000000
E 112 631 195.000000
E 113 473 200.000000
E 113 568 205.000000
E 114 194 206.000000
E 114 266 195.000000
E 114 341 196.000000
E 114 415 199.000000
E 114 519 197.000000
E 114 543 196.000000
E 115 220 201.000000
E 115 560 194.000000
E 115 632 193.000000
E 116 139 289.000000
E 116 259 197.000000
E 116 321 200.000000
E 116 423 203.000000
E 116 512 206.000000
E 116 544 199.000000
E 116 590 198.000000
E 117 292 197.000000
E 117 362 196.000000
E 117 523 207.000000
E 117 545 198.000000
E 117 637 197.000000
E 118 333 199.000000
E 118 451 200.000000
E 118 499 193.000000
E 119 451 202.000000
E 119 622 204.000000
E 120 135 297.000000
E 120 187 202.000000
E 120 199 205.000000
E 120 407 206.000000
E 120 451 200.000000
E 120 573 195.000000
E 120 602 196.000000
E 120 608 196.000000
E 120 639 206.000000
E 121 287 200.000000
E 121 541 204.000000
E 122 281 201.000000
E 123 211 194.000000
E 123 373 202.000000
E 123 445 203.000000
E 123 594 201.000000
E 123 637 197.000000
E 124 157 303.000000
E 124 337 196.000000
E 124 421 195.000000
E 124 432 200.000000
E 124 581 202.000000
E 125 139 299.000000
E 125 419 204.000000
E 126 368 195.000000
E 126 513 199.000000
E 126 539 204.000000
E 126 606 207.000000
E 127 154 297.000000
E 127 424 204.000000
E 127 455 205.000000
E 127 473 206.000000
E 127 481 196.000000
E 128 153 304.000000
E 128 382 198.000000
E 128 491 198.000000
E 128 517 195.000000
E 128 549 201.000000
E 129 190 206.000000
E 129 419 198.000000
E 129 506 202.000000
E 130 430 207.000000
E 130 485 193.000000
E 131 132 297.000000
E 131 382 210.000000
E 131 493 195.000000
E 132 141 303.000000
E 132 207 199.000000
E 132 361 193.000000
E 132 443 200.000000
E 133 442 191.000000
E 133 487 198.000000
E 134 194 204.000000
E 134 246 199.000000
E 134 450 199.000000
E 135 329 201.000000
E 135 570 207.000000
E 136 528 196.000000
E 136 578 206.000000
E 137 215 198.000000
E 137 506 192.000000
E 137 525 194.000000
E 137 580 197.000000
E 137 600 194.000000
E 138 251 202.000000
E 138 282 199.000000
E 138 318 193.000000
E 139 508 199.000000
E 139 540 202.000000
E 140 313 191.000000
E 140 361 208.000000
E 140 532 203.000000
E 141 236 195.000000
E 141 240 207.000000
E 141 261 204.000000
E 141 269 196.000000
E 141 473 201.000000
E 141 500 201.000000
E 141 503 197.000000
E 141 525 204.000000
E 141 584 200.000000
E 141 597 201.000000
E 142 223 206.000000
E 142 283 202.000000
E 142 586 207.000000
E 143 246 195.000000
E 143 375 203.000000
E 143 412 203.000000
E 143 417 191.000000
E 143 470 197.000000
E 143 518 191.000000
E 144 334 198.000000
E 144 433 197.000000
E 144 625 198.000000
E 145 452 200.000000
E 146 336 204.000000
E 146 346 202.000000
E 146 363 201.000000
E 147 558 205.000000
E 148 158 297.000000
E 148 524 202.000000
E 149 209 203.000000
E 150 242 200.000000
E 150 356 196.000000
E 150 543 201.000000
E 150 607 200.000000
E 151 254 197.000000
E 151 289 196.000000
E 152 169 203.000000
E 152 235 199.000000
E 152 329 187.000000
E 152 433 194.000000
E 152 621 205.000000
E 153 155 302.000000
E 153 157 300.000000
E 153 349 197.000000
E 153 361 197.000000
E 153 426 196.000000
E 153 590 199.000000
E 154 181 195.000000
E 154 451 197.000000
E 155 291 200.000000
E 155 472 199.000000
E 155 552 200.000000
E 156 170 192.000000
E 156 436 203.000000
E 156 572 205.000000
E 156 601 206.000000
E 157 312 199.000000
E 157 314 195.000000
E 157 352 197.000000
E 158 637 205.000000
E 159 404 201.000000
E 159 443 191.000000
E 159 467 200.000000
E 159 565 202.000000
E 159 570 197.000000
E 161 257 104.000000
E 161 350 99.000000
E 162 164 103.000000
E 162 235 94.000000
E 162 328 101.000000
E 162 369 105.000000
E 162 482 99.000000
E 162 613 92.000000
E 164 292 94.000000
E 164 475 101.000000
E 164 625 95.000000
E 165 227 104.000000
E 165 597 105.000000
E 166 177 98.000000
E 166 191 98.000000
E 166 286 102.000000
E 167 533 97.000000
E 167 568 95.000000
E 168 307 101.000000
E 168 539 101.000000
E 169 605 95.000000
E 170 181 113.000000
E 170 440 93.000000
E 170 499 102.000000
E 171 417 99.000000
E 172 218 100.000000
E 172 369 92.000000
E 172 394 108.000000
E 172 530 96.000000
E 173 331 99.000000
E 173 581 94.000000
E 174 177 103.000000
E 174 186 101.000000
E 174 410 96.000000
E 175 264 101.000000
E 175 339 102.000000
E 175 406 104.000000
E 175 459 91.000000
E 175 477 97.000000
E 175 497 89.000000
E 175 545 97.000000
E 175 600 104.000000
E 175 601 107.000000
E 176 219 108.000000
E 176 282 91.000000
E 176 383 96.000000
E 176 468 95.000000
E 177 268 88.000000
E 177 275 110.000000
E 177 386 97.000000
E 177 396 108.000000
E 177 455 92.000000
E 177 627 98.000000
E 178 223 102.000000
E 179 470 99.000000
E 179 482 99.000000
E 179 490 103.000000
E 179 575 100.000000
E 179 601 105.000000
E 180 206 99.000000
E 180 297 105.000000
E 180 334 89.000000
E 180 613 95.000000
E 181 553 105.000000
E 181 569 102.000000
E 182 340 99.000000
E 182 523 93.000000
E 182 599 98.000000
E 183 336 95.000000
E 183 368 101.000000
E 184 229 111.000000
E 185 227 101.000000
E 185 332 99.000000
E 185 370 103.000000
E 185 593 102.000000
E 186 199 101.000000
E 186 209 107.000000
E 187 592 96.000000
E 188 293 102.000000
E 189 426 96.000000
E 190 571 98.000000
E 191 287 87.000000
E 191 311 107.000000
E 191 419 90.000000
E 192 295 107.000000
E 192 326 102.000000
E 192 464 97.000000
E 193 204 103.000000
E 193 404 105.000000
E 193 506 103.000000
E 194 307 90.000000
E 194 489 101.000000
E 195 458 95.000000
E 197 438 93.000000
E 197 463 95.000000
E 198 267 104.000000
E 198 273 109.000000
E 198 280 93.000000
E 198 294 108.000000
E 198 512 100.000000
E 199 424 104.000000
E 200 320 100.000000
E 200 355 101.000000
E 200 522 100.000000
E 200 561 95.000000
E 201 469 104.000000
E 202 312 101.000000
E 202 616 93.000000
E 203 337 104.000000
E 203 454 91.000000
E 203 567 96.000000
E 203 583 95.000000
E 203 590 102.000000
E 204 620 95.000000
E 205 275 97.000000
E 205 420 109.000000
E 206 240 100.000000
E 206 308 96.000000
E 206 438 107.000000
E 206 498 102.000000
E 206 546 102.000000
E 206 615 102.000000
E 207 327 88.000000
E 207 590 99.000000
E 208 445 96.000000
E 208 551 98.000000
E 209 312 89.000000
E 209 417 92.000000
E 209 577 96.000000
E 210 354 100.000000
E 210 537 96.000000
E 210 572 99.000000
E 211 625 102.000000
E 212 243 104.000000
E 212 370 97.000000
E 212 444 95.000000
E 213 277 105.000000
E 213 511 100.000000
E 213 614 94.000000
E 214 278 102.000000
E 215 287 93.000000
E 215 297 109.000000
E 215 400 97.000000
E 215 430 94.000000
E 216 239 107.000000
E 216 294 94.000000
E 216 516 99.000000
E 216 527 97.000000
E 217 252 106.000000
E 217 387 112.000000
E 218 266 101.000000
E 218 304 98.000000
E 218 471 102.000000
E 219 278 102.000000
E 220 290 99.000000
E 220 483 102.000000
E 221 585 101.000000
E 221 597 103.000000
E 222 581 100.000000
E 224 292 102.000000
E 224 522 91.000000
E 225 252 90.000000
E 225 401 99.000000
E 225 484 103.000000
E 226 235 103.000000
E 226 302 104.000000
E 226 343 89.000000
E 226 464 104.000000
E 227 453 92.000000
E 227 611 103.000000
E 228 296 94.000000
E 229 269 97.000000
E 229 572 103.000000
E 229 604 109.000000
E 230 244 100.000000
E 230 515 96.000000
E 230 576 97.000000
E 231 334 102.000000
E 231 383 104.000000
E 231 640 100.000000
E 232 425 102.000000
E 232 497 104.000000
E 232 534 101.000000
E 233 253 108.000000
E 233 469 98.000000
E 233 560 92.000000
E 234 261 105.000000
E 234 462 105.000000
E 234 622 94.000000
E 235 272 100.000000
E 235 387 94.000000
E 236 333 94.000000
E 237 244 101.000000
E 237 314 103.000000
E 237 432 95.000000
E 237 467 104.000000
E 237 498 98.000000
E 237 550 99.000000
E 237 621 97.000000
E 239 317 93.000000
E 239 495 97.000000
E 239 554 102.000000
E 240 285 94.000000
E 240 383 93.000000
E 240 531 98.000000
E 242 394 96.000000
E 242 402 101.000000
E 243 244 93.000000
E 243 401 97.000000
E 243 623 96.000000
E 244 298 97.000000
E 245 259 99.000000
E 245 347 105.000000
E 245 447 94.000000
E 246 281 99.000000
E 246 330 85.000000
E 246 385 92.000000
E 246 493 94.000000
E 246 638 111.000000
E 247 294 106.000000
E 248 616 103.000000
E 249 577 105.000000
E 250 267 100.000000
E 251 346 94.000000
E 251 564 97.000000
E 251 626 90.000000
E 252 320 109.000000
E 252 499 99.000000
E 253 337 94.000000
E 253 452 96.000000
E 254 311 103.000000
E 254 602 101.000000
E 255 305 107.000000
E 255 373 103.000000
E 255 452 101.000000
E 255 563 97.000000
E 255 582 108.000000
E 256 467 106.000000
E 256 577 100.000000
E 257 276 98.000000
E 258 404 101.000000
E 258 519 102.000000
E 259 336 97.000000
E 259 453 100.000000
E 259 520 101.000000
E 260 395 101.000000
E 260 432 106.000000
E 260 534 107.000000
E 261 398 93.000000
E 261 594 94.000000
E 261 623 87.000000
E 262 433 102.000000
E 263 351 102.000000
E 263 432 97.000000
E 264 339 94.000000
E 264 515 106.000000
E 265 380 99.000000
E 265 516 105.000000
E 265 625 98.000000
E 266 494 90.000000
E 266 599 99.000000
E 266 622 96.000000
E 266 623 103.000000
E 267 329 99.000000
E 267 339 97.000000
E 267 493 98.000000
E 268 309 96.000000
E 268 387 87.000000
E 268 454 100.000000
E 268 552 92.000000
E 269 602 103.000000
E 270 377 94.000000
E 270 415 111.000000
E 270 559 102.000000
E 271 361 94.000000
E 271 424 99.000000
E 271 551 99.000000
E 272 631 105.000000
E 273 304 95.000000
E 273 507 99.000000
E 274 636 96.000000
E 275 277 103.000000
E 275 413 100.000000
E 275 567 102.000000
E 276 463 100.000000
E 276 482 100.000000
E 277 368 97.000000
E 277 585 91.000000
E 278 489 91.000000
E 279 462 98.000000
E 279 633 102.000000
E 280 329 98.000000
E 280 559 102.000000
E 281 405 105.000000
E 281 529 99.000000
E 282 345 104.000000
E 282 550 117.000000
E 282 622 100.000000
E 282 629 96.000000
E 283 304 94.000000
E 283 521 93.000000
E 283 576 101.000000
E 283 586 98.000000
E 284 391 98.000000
E 284 476 101.000000
E 285 361 106.000000
E 285 419 109.000000
E 285 565 97.000000
E 286 319 89.000000
E 286 619 94.000000
E 287 458 93.000000
E 288 311 101.000000
E 288 403 103.000000
E 288 428 101.000000
E 288 456 95.000000
E 288 552 99.000000
E 288 580 104.000000
E 289 339 97.000000
E 289 409 105.000000
E 289 523 95.000000
E 289 550 106.000000
E 289 596 107.000000
E 290 358 103.000000
E 290 628 98.000000
E 291 372 103.000000
E 291 523 94.000000
E 291 586 100.000000
E 292 308 91.000000
E 292 511 100.000000
E 293 348 93.000000
E 293 547 99.000000
E 294 404 96.000000
E 294 511 93.000000
E 294 623 100.000000
E 295 611 98.000000
E 296 321 102.000000
E 297 307 98.000000
E 297 373 94.000000
E 298 416 96.000000
E 298 422 105.000000
E 298 431 99.000000
E 299 597 101.000000
E 300 302 104.000000
E 300 557 102.000000
E 300 605 101.000000
E 301 329 93.000000
E 301 360 100.000000
E 301 610 105.000000
E 302 453 104.000000
E 303 313 102.000000
E 303 436 109.000000
E 303 618 98.000000
E 304 362 99.000000
E 304 437 104.000000
E 304 508 88.000000
E 305 477 103.000000
E 305 606 110.000000
E 306 524 94.000000
E 308 536 101.000000
E 308 609 102.000000
E 310 397 97.000000
E 310 434 104.000000
E 311 448 95.000000
E 311 548 98.000000
E 311 603 102.000000
E 312 358 102.000000
E 312 375 99.000000
E 312 448 103.000000
E 312 567 104.000000
E 313 419 104.000000
E 313 520 111.000000
E 314 378 98.000000
E 314 469 110.000000
E 314 485 97.000000
E 314 560 97.000000
E 315 327 99.000000
E 315 383 98.000000
E 316 350 98.000000
E 318 322 91.000000
E 319 456 108.000000
E 320 479 103.000000
E 320 492 101.000000
E 321 444 102.000000
E 321 455 98.000000
E 321 465 94.000000
E 321 486 100.000000
E 322 463 103.000000
E 322 591 90.000000
E 323 354 105.000000
E 323 570 100.000000
E 323 605 91.000000
E 324 497 91.000000
E 325 356 97.000000
E 325 523 106.000000
E 326 497 100.000000
E 327 588 93.000000
E 328 633 101.000000
E 329 376 98.000000
E 329 399 105.000000
E 329 508 99.000000
E 329 557 99.000000
E 331 336 93.000000
E 331 391 106.000000
E 331 415 104.000000
E 332 439 101.000000
E 333 625 103.000000
E 334 446 98.000000
E 334 590 101.000000
E 335 412 93.000000
E 335 492 97.000000
E 335 499 99.000000
E 336 561 91.000000
E 337 519 98.000000
E 337 527 96.000000
E 338 534 105.000000
E 338 542 94.000000
E 338 594 103.000000
E 339 466 98.000000
E 339 469 104.000000
E 340 353 100.000000
E 340 617 98.000000
E 341 392 98.000000
E 341 440 105.000000
E 341 454 107.000000
E 341 498 104.000000
E 341 635 98.000000
E 342 596 93.000000
E 343 630 98.000000
E 344 426 100.000000
E 344 554 112.000000
E 345 413 99.000000
E 345 521 98.000000
E 345 552 92.000000
E 346 511 99.000000
E 346 540 105.000000
E 347 548 97.000000
E 349 479 98.000000
E 349 533 99.000000
E 350 356 95.000000
E 350 483 106.000000
E 351 583 95.000000
E 351 616 100.000000
E 352 397 110.000000
E 352 411 100.000000
E 353 371 101.000000
E 353 531 100.000000
E 354 402 88.000000
E 354 409 109.000000
E 355 422 108.000000
E 356 524 99.000000
E 357 385 100.000000
E 357 424 104.000000
E 359 496 95.000000
E 360 558 105.000000
E 363 394 100.000000
E 363 448 104.000000
E 363 484 104.000000
E 365 368 103.000000
E 365 451 97.000000
E 366 575 97.000000
E 367 370 105.000000
E 367 459 103.000000
E 368 414 107.000000
E 369 524 102.000000
E 369 588 97.000000
E 371 444 104.000000
E 372 408 108.000000
E 372 540 107.000000
E 372 547 88.000000
E 372 593 109.000000
E 373 550 89.000000
E 375 445 108.000000
E 375 532 96.000000
E 375 560 98.000000
E 375 591 106.000000
E 377 412 93.000000
E 377 423 104.000000
E 377 567 98.000000
E 377 622 99.000000
E 378 596 99.000000
E 379 440 93.000000
E 379 506 96.000000
E 380 382 106.000000
E 380 496 106.000000
E 381 437 94.000000
E 381 560 102.000000
E 381 578 100.000000
E 383 398 111.000000
E 383 535 104.000000
E 383 556 97.000000
E 384 546 107.000000
E 385 610 101.000000
E 386 518 102.000000
E 386 565 97.000000
E 386 569 100.000000
E 386 582 97.000000
E 386 596 102.000000
E 387 465 107.000000
E 387 526 101.000000
E 387 527 103.000000
E 388 434 105.000000
E 388 549 97.000000
E 390 451 97.000000
E 391 444 99.000000
E 391 596 98.000000
E 391 607 98.000000
E 392 571 102.000000
E 393 417 92.000000
E 394 398 95.000000
E 394 438 102.000000
E 396 449 104.000000
E 397 576 102.000000
E 397 610 96.000000
E 398 565 96.000000
E 399 401 103.000000
E 400 461 99.000000
E 401 575 99.000000
E 401 592 94.000000
E 402 425 98.000000
E 403 460 99.000000
E 404 504 90.000000
E 405 451 97.000000
E 405 492 106.000000
E 406 427 102.000000
E 406 614 98.000000
E 409 417 92.000000
E 409 454 104.000000
E 409 496 102.000000
E 411 544 96.000000
E 411 576 102.000000
E 412 578 96.000000
E 414 432 95.000000
E 414 534 93.000000
E 414 556 99.000000
E 416 471 110.000000
E 417 617 110.000000
E 418 496 91.000000
E 419 455 100.000000
E 419 585 93.000000
E 420 469 96.000000
E 421 487 102.000000
E 421 541 104.000000
E 423 622 100.000000
E 424 636 89.000000
E 425 536 91.000000
E 426 530 103.000000
E 426 597 106.000000
E 428 524 105.000000
E 428 560 109.000000
E 429 506 97.000000
E 430 452 97.000000
E 431 535 94.000000
E 431 568 90.000000
E 433 448 95.000000
E 433 501 101.000000
E 434 454 101.000000
E 434 629 98.000000
E 435 561 95.000000
E 436 590 107.000000
E 437 503 100.000000
E 437 562 108.000000
E 440 525 104.000000
E 441 445 107.000000
E 442 445 108.000000
E 442 500 98.000000
E 442 584 100.000000
E 443 537 100.000000
E 443 566 103.000000
E 446 485 103.000000
E 447 488 97.000000
E 448 512 97.000000
E 448 558 104.000000
E 449 556 97.000000
E 449 611 98.000000
E 450 479 98.000000
E 451 458 104.000000
E 451 565 99.000000
E 452 510 95.000000
E 452 570 102.000000
E 452 585 102.000000
E 453 568 105.000000
E 456 503 105.000000
E 456 521 99.000000
E 459 534 101.000000
E 460 481 94.000000
E 460 522 100.000000
E 461 560 103.000000
E 463 506 99.000000
E 463 554 100.000000
E 463 594 100.000000
E 463 622 104.000000
E 463 624 103.000000
E 464 624 106.000000
E 465 555 110.000000
E 466 480 96.000000
E 466 503 101.000000
E 466 504 96.000000
E 468 517 97.000000
E 469 481 102.000000
E 471 635 97.000000
E 476 571 103.000000
E 479 490 99.000000
E 479 600 93.000000
E 480 483 95.000000
E 480 518 95.000000
E 480 536 95.000000
E 480 617 96.000000
E 480 633 96.000000
E 482 487 110.000000
E 486 636 100.000000
E 487 508 91.000000
E 487 523 100.000000
E 487 618 104.000000
E 491 593 100.000000
E 492 538 101.000000
E 492 632 93.000000
E 494 536 97.000000
E 494 579 105.000000
E 496 586 105.000000
E 496 598 98.000000
E 497 507 100.000000
E 501 549 104.000000
E 503 630 94.000000
E 504 558 91.000000
E 504 606 100.000000
E 504 614 104.000000
E 505 530 97.000000
E 507 621 101.000000
E 508 610 94.000000
E 509 530 93.000000
E 510 533 100.000000
E 510 535 98.000000
E 510 598 104.000000
E 511 519 101.000000
E 511 623 94.000000
E 511 627 101.000000
E 512 612 102.000000
E 516 529 96.000000
E 516 544 99.000000
E 517 565 102.000000
E 518 566 97.000000
E 520 533 101.000000
E 520 587 99.000000
E 521 574 102.000000
E 522 555 97.000000
E 523 530 102.000000
E 524 535 97.000000
E 526 590 95.000000
E 526 640 108.000000
E 527 534 100.000000
E 528 570 103.000000
E 530 564 95.000000
E 531 590 94.000000
E 533 541 104.000000
E 535 590 99.000000
E 536 605 104.000000
E 539 609 93.000000
E 540 559 114.000000
E 540 577 104.000000
E 541 587 91.000000
E 543 564 105.000000
E 543 630 97.000000
E 544 569 98.000000
E 545 580 97.000000
E 545 638 102.000000
E 547 583 108.000000
E 548 608 104.000000
E 549 619 96.000000
E 552 622 94.000000
E 554 601 93.000000
E 557 612 103.000000
E 561 587 100.000000
E 561 608 108.000000
E 561 614 107.000000
E 562 583 95.000000
E 565 570 100.000000
E 568 597 105.000000
E 569 598 97.000000
E 570 593 97.000000
E 577 640 98.000000
E 581 624 99.000000
E 582 609 99.000000
E 583 623 103.000000
E 583 626 91.000000
E 585 637 101.000000
E 593 634 99.000000
E 596 597 101.000000
E 596 613 99.000000
E 596 622 97.000000
E 609 620 103.000000
E 613 628 102.000000
E 620 628 97.000000
END

SECTION Terminals
Terminals 160
TP 1 964.000000
TP 2 956.000000
TP 3 496.000000
TP 4 756.000000
TP 5 196.000000
TP 6 1116.000000
TP 7 84.000000
TP 8 372.000000
TP 9 940.000000
TP 10 328.000000
TP 11 532.000000
TP 12 1000.000000
TP 13 1192.000000
TP 14 688.000000
TP 15 832.000000
TP 16 352.000000
TP 17 1120.000000
TP 18 284.000000
TP 19 76.000000
TP 20 348.000000
TP 21 1228.000000
TP 22 556.000000
TP 23 576.000000
TP 24 64.000000
TP 25 976.000000
TP 26 420.000000
TP 27 1212.000000
TP 28 160.000000
TP 29 1156.000000
TP 30 1212.000000
TP 31 724.000000
TP 32 408.000000
TP 33 776.000000
TP 34 468.000000
TP 35 736.000000
TP 36 332.000000
TP 37 704.000000
TP 38 576.000000
TP 39 124.000000
TP 40 1104.000000
TP 41 1012.000000
TP 42 872.000000
TP 43 256.000000
TP 44 176.000000
TP 45 1016.000000
TP 46 596.000000
TP 47 456.000000
TP 48 1012.000000
TP 49 128.000000
TP 50 784.000000
TP 51 400.000000
TP 52 1192.000000
TP 53 228.000000
TP 54 248.000000
TP 55 680.000000
TP 56 1212.000000
TP 57 456.000000
TP 58 548.000000
TP 59 396.000000
TP 60 196.000000
TP 61 860.000000
TP 62 356.000000
TP 63 4.000000
TP 64 972.000000
TP 65 688.000000
TP 66 1184.000000
TP 67 696.000000
TP 68 896.000000
TP 69 772.000000
TP 70 856.000000
TP 71 1232.000000
TP 72 928.000000
TP 73 12.000000
TP 74 544.000000
TP 75 304.000000
TP 76 252.000000
TP 77 940.000000
TP 78 532.000000
TP 79 888.000000
TP 80 768.000000
TP 81 1056.000000
TP 82 1132.000000
TP 83 236.000000
TP 84 224.000000
TP 85 780.000000
TP 86 112.000000
TP 87 176.000000
TP 88 1156.000000
TP 89 336.000000
TP 90 304.000000
TP 91 468.000000
TP 92 380.000000
TP 93 348.000000
TP 94 1076.000000
TP 95 240.000000
TP 96 1020.000000
TP 97 244.000000
TP 98 980.000000
TP 99 72.000000
TP 100 776.000000
TP 101 112.000000
TP 102 240.000000
TP 103 100.000000
TP 104 1112.000000
TP 105 744.000000
TP 106 1000.000000
TP 107 1176.000000
TP 108 952.000000
TP 109 308.000000
TP 110 764.000000
TP 111 532.000000
TP 112 664.000000
TP 113 208.000000
TP 114 608.000000
TP 115 560.000000
TP 116 788.000000
TP 117 1040.000000
TP 118 476.000000
TP 119 448.000000
TP 120 904.000000
TP 121 212.000000
TP 122 608.000000
TP 123 808.000000
TP 124 428.000000
TP 125 784.000000
TP 126 792.000000
TP 127 520.000000
TP 128 1208.000000
TP 129 1148.000000
TP 130 604.000000
TP 131 256.000000
TP 132 1032.000000
TP 133 644.000000
TP 134 632.000000
TP 135 320.000000
TP 136 332.000000
TP 137 880.000000
TP 138 1188.000000
TP 139 200.000000
TP 140 1144.000000
TP 141 436.000000
TP 142 80.000000
TP 143 852.000000
TP 144 664.000000
TP 145 552.000000
TP 146 792.000000
TP 147 1016.000000
TP 148 552.000000
TP 149 668.000000
TP 150 848.000000
TP 151 764.000000
TP 152 1100.000000
TP 153 164.000000
TP 154 632.000000
TP 155 1016.000000
TP 156 124.000000
TP 157 1204.000000
TP 158 200.000000
TP 159 1220.000000
TP 160 224.000000
END

EOF
